(declare-fun temp70_1 () (_ BitVec 64))
(declare-fun var68976 () (_ BitVec 64))
(declare-fun temp70_2 () (_ BitVec 64))
(declare-fun temp70_3 () (_ BitVec 64))
(declare-fun temp70_4 () (_ BitVec 64))
(declare-fun ARGNAME_w_ih_NAMEEND_DIMSIZE
             ()
             (Array (_ BitVec 64) (_ BitVec 64)))
(declare-fun temp70_5 () (_ BitVec 64))
(declare-fun temp70_6 () (_ BitVec 64))
(declare-fun temp70_7 () (_ BitVec 64))
(declare-fun temp70_8 () (_ BitVec 64))
(declare-fun temp70_9 () (_ BitVec 64))
(declare-fun temp70_10 () (_ BitVec 64))
(declare-fun temp70_11 () (_ BitVec 64))
(declare-fun temp70_12 () (_ BitVec 64))
(declare-fun temp70_13 () (_ BitVec 64))
(declare-fun temp70_14 () (_ BitVec 64))
(declare-fun temp70_15 () (_ BitVec 64))
(declare-fun temp70_16 () (_ BitVec 64))
(declare-fun temp70_17 () (_ BitVec 64))
(declare-fun temp70_18 () (_ BitVec 64))
(declare-fun temp70_19 () (_ BitVec 64))
(declare-fun temp70_20 () (_ BitVec 64))
(declare-fun temp70_21 () (_ BitVec 64))
(declare-fun temp70_22 () (_ BitVec 64))
(declare-fun var77671 () (_ BitVec 64))
(declare-fun temp70_23 () (_ BitVec 64))
(declare-fun temp70_24 () (_ BitVec 64))
(declare-fun temp70_25 () (_ BitVec 64))
(declare-fun ARGNAME_input_NAMEEND_DIMSIZE
             ()
             (Array (_ BitVec 64) (_ BitVec 64)))
(declare-fun temp70_26 () (_ BitVec 64))
(declare-fun temp70_27 () (_ BitVec 64))
(declare-fun temp70_28 () (_ BitVec 64))
(declare-fun temp70_29 () (_ BitVec 64))
(declare-fun temp70_30 () (_ BitVec 64))
(declare-fun temp70_31 () (_ BitVec 64))
(declare-fun temp70_32 () (_ BitVec 64))
(declare-fun temp70_33 () (_ BitVec 64))
(declare-fun temp70_34 () (_ BitVec 64))
(declare-fun temp70_35 () (_ BitVec 64))
(declare-fun temp70_36 () (_ BitVec 64))
(declare-fun temp70_37 () (_ BitVec 64))
(declare-fun temp70_38 () (_ BitVec 64))
(declare-fun temp70_39 () (_ BitVec 64))
(declare-fun temp70_40 () (_ BitVec 64))
(declare-fun temp70_41 () (_ BitVec 64))
(declare-fun temp70_42 () (_ BitVec 64))
(declare-fun temp70_43 () (_ BitVec 64))
(declare-fun temp70_44 () (_ BitVec 64))
(declare-fun temp70_45 () (_ BitVec 64))
(declare-fun var273184 () (_ BitVec 64))
(declare-fun k!0 () Bool)
(declare-fun ARGNAME_w_ih_NAMEEND_DIM () (_ BitVec 64))
(declare-fun k!1 () (_ BitVec 64))
(declare-fun k!2 () (_ BitVec 64))
(declare-fun k!3 () Bool)
(declare-fun k!4 () Bool)
(declare-fun ARGNAME_input_NAMEEND_DIM () (_ BitVec 64))
(declare-fun temp70_46 () (_ BitVec 64))
(declare-fun temp70_47 () (_ BitVec 64))
(declare-fun temp70_48 () (_ BitVec 64))
(declare-fun ARGNAME_w_hh_NAMEEND_DIMSIZE
             ()
             (Array (_ BitVec 64) (_ BitVec 64)))
(declare-fun temp70_49 () (_ BitVec 64))
(declare-fun temp70_50 () (_ BitVec 64))
(declare-fun temp70_51 () (_ BitVec 64))
(declare-fun temp70_52 () (_ BitVec 64))
(declare-fun temp70_53 () (_ BitVec 64))
(declare-fun temp70_54 () (_ BitVec 64))
(declare-fun temp70_55 () (_ BitVec 64))
(declare-fun temp70_56 () (_ BitVec 64))
(declare-fun temp70_57 () (_ BitVec 64))
(declare-fun temp70_58 () (_ BitVec 64))
(declare-fun temp70_59 () (_ BitVec 64))
(declare-fun temp70_60 () (_ BitVec 64))
(declare-fun temp70_61 () (_ BitVec 64))
(declare-fun temp70_62 () (_ BitVec 64))
(declare-fun temp70_63 () (_ BitVec 64))
(declare-fun temp70_64 () (_ BitVec 64))
(declare-fun temp70_65 () (_ BitVec 64))
(declare-fun ARGNAME_w_hh_NAMEEND_DIM () (_ BitVec 64))
(declare-fun temp70_66 () (_ BitVec 64))
(declare-fun temp70_67 () (_ BitVec 64))
(declare-fun var77676 () (_ BitVec 64))
(declare-fun temp70_68 () (_ BitVec 64))
(declare-fun temp70_69 () (_ BitVec 64))
(declare-fun temp70_70 () (_ BitVec 64))
(declare-fun temp70_71 () (_ BitVec 64))
(declare-fun temp70_72 () (_ BitVec 64))
(declare-fun ARGNAME_hx_NAMEEND_DIMSIZE () (Array (_ BitVec 64) (_ BitVec 64)))
(declare-fun temp70_73 () (_ BitVec 64))
(declare-fun temp70_74 () (_ BitVec 64))
(declare-fun temp70_75 () (_ BitVec 64))
(declare-fun temp70_76 () (_ BitVec 64))
(declare-fun temp70_77 () (_ BitVec 64))
(declare-fun temp70_78 () (_ BitVec 64))
(declare-fun temp70_79 () (_ BitVec 64))
(declare-fun temp70_80 () (_ BitVec 64))
(declare-fun temp70_81 () (_ BitVec 64))
(declare-fun temp70_82 () (_ BitVec 64))
(declare-fun temp70_83 () (_ BitVec 64))
(declare-fun temp70_84 () (_ BitVec 64))
(declare-fun temp70_85 () (_ BitVec 64))
(declare-fun temp70_86 () (_ BitVec 64))
(declare-fun temp70_87 () (_ BitVec 64))
(declare-fun temp70_88 () (_ BitVec 64))
(declare-fun temp70_89 () (_ BitVec 64))
(declare-fun temp70_90 () (_ BitVec 64))
(declare-fun temp70_91 () (_ BitVec 64))
(declare-fun ARGNAME_hx_NAMEEND_DIM () (_ BitVec 64))
(declare-fun var535496 () (_ BitVec 64))
(declare-fun temp70_92 () (_ BitVec 64))
(declare-fun temp70_93 () (_ BitVec 64))
(declare-fun temp70_94 () (_ BitVec 64))
(declare-fun temp70_95 () (_ BitVec 64))
(declare-fun temp70_96 () (_ BitVec 64))
(declare-fun var535565 () (_ BitVec 64))
(declare-fun temp70_97 () (_ BitVec 64))
(declare-fun temp70_99 () (_ BitVec 64))
(declare-fun temp70_98 () (_ BitVec 64))
(assert (= temp70_1 #x0000000000000001))
(assert (= var68976 temp70_1))
(assert (= temp70_2 #x0000000000000000))
(assert (= temp70_3 temp70_2))
(assert (= temp70_4 (select ARGNAME_w_ih_NAMEEND_DIMSIZE temp70_3)))
(assert (= temp70_5 #x0000000000000001))
(assert (= temp70_6 temp70_5))
(assert (= temp70_7 (select ARGNAME_w_ih_NAMEEND_DIMSIZE temp70_6)))
(assert (= temp70_8 #x0000000000000002))
(assert (= temp70_9 temp70_8))
(assert (= temp70_10 (select ARGNAME_w_ih_NAMEEND_DIMSIZE temp70_9)))
(assert (= temp70_11 #x0000000000000003))
(assert (= temp70_12 temp70_11))
(assert (= temp70_13 (select ARGNAME_w_ih_NAMEEND_DIMSIZE temp70_12)))
(assert (= temp70_14 #x0000000000000004))
(assert (= temp70_15 temp70_14))
(assert (= temp70_16 (select ARGNAME_w_ih_NAMEEND_DIMSIZE temp70_15)))
(assert (= temp70_17 #x0000000000000005))
(assert (= temp70_18 temp70_17))
(assert (= temp70_19 (select ARGNAME_w_ih_NAMEEND_DIMSIZE temp70_18)))
(assert (= temp70_20 #x0000000000000000))
(assert (= temp70_21
   (ite (bvslt var68976 temp70_20)
        (bvadd ARGNAME_w_ih_NAMEEND_DIM var68976)
        var68976)))
(assert (= temp70_22 (select ARGNAME_w_ih_NAMEEND_DIMSIZE temp70_21)))
(assert (= var77671 temp70_22))
(assert (bvslt (ite (bvslt var68976 temp70_20)
            (bvadd ARGNAME_w_ih_NAMEEND_DIM var68976)
            var68976)
       ARGNAME_w_ih_NAMEEND_DIM))
(assert (= temp70_23 #x0000000000000000))
(assert (= temp70_24 temp70_23))
(assert (= temp70_25 (select ARGNAME_input_NAMEEND_DIMSIZE temp70_24)))
(assert (= temp70_26 #x0000000000000001))
(assert (= temp70_27 temp70_26))
(assert (= temp70_28 (select ARGNAME_input_NAMEEND_DIMSIZE temp70_27)))
(assert (= temp70_29 #x0000000000000002))
(assert (= temp70_30 temp70_29))
(assert (= temp70_31 (select ARGNAME_input_NAMEEND_DIMSIZE temp70_30)))
(assert (= temp70_32 #x0000000000000003))
(assert (= temp70_33 temp70_32))
(assert (= temp70_34 (select ARGNAME_input_NAMEEND_DIMSIZE temp70_33)))
(assert (= temp70_35 #x0000000000000004))
(assert (= temp70_36 temp70_35))
(assert (= temp70_37 (select ARGNAME_input_NAMEEND_DIMSIZE temp70_36)))
(assert (= temp70_38 #x0000000000000005))
(assert (= temp70_39 temp70_38))
(assert (= temp70_40 (select ARGNAME_input_NAMEEND_DIMSIZE temp70_39)))
(assert (= temp70_41 #x0000000000000001))
(assert (= temp70_42 temp70_41))
(assert (= temp70_43 (select ARGNAME_input_NAMEEND_DIMSIZE temp70_42)))
(assert (bvsgt ARGNAME_input_NAMEEND_DIM temp70_41))
(assert (bvsge temp70_41 (bvneg ARGNAME_input_NAMEEND_DIM)))
(assert (= temp70_44 var77671))
(assert (= var273184
   (ite (= temp70_43 temp70_44) #x0000000000000001 #x0000000000000000)))
(assert (= temp70_45 #x0000000000000001))
(assert (= var273184 temp70_45))
(assert (= temp70_46 #x0000000000000001))
(assert (= var68976 temp70_46))
(assert (= temp70_47 #x0000000000000000))
(assert (= temp70_48 temp70_47))
(assert (= temp70_49 (select ARGNAME_w_hh_NAMEEND_DIMSIZE temp70_48)))
(assert (= temp70_50 #x0000000000000001))
(assert (= temp70_51 temp70_50))
(assert (= temp70_52 (select ARGNAME_w_hh_NAMEEND_DIMSIZE temp70_51)))
(assert (= temp70_53 #x0000000000000002))
(assert (= temp70_54 temp70_53))
(assert (= temp70_55 (select ARGNAME_w_hh_NAMEEND_DIMSIZE temp70_54)))
(assert (= temp70_56 #x0000000000000003))
(assert (= temp70_57 temp70_56))
(assert (= temp70_58 (select ARGNAME_w_hh_NAMEEND_DIMSIZE temp70_57)))
(assert (= temp70_59 #x0000000000000004))
(assert (= temp70_60 temp70_59))
(assert (= temp70_61 (select ARGNAME_w_hh_NAMEEND_DIMSIZE temp70_60)))
(assert (= temp70_62 #x0000000000000005))
(assert (= temp70_63 temp70_62))
(assert (= temp70_64 (select ARGNAME_w_hh_NAMEEND_DIMSIZE temp70_63)))
(assert (= temp70_65 #x0000000000000000))
(assert (= temp70_66
   (ite (bvslt var68976 temp70_65)
        (bvadd ARGNAME_w_hh_NAMEEND_DIM var68976)
        var68976)))
(assert (= temp70_67 (select ARGNAME_w_hh_NAMEEND_DIMSIZE temp70_66)))
(assert (= var77676 temp70_67))
(assert (bvslt (ite (bvslt var68976 temp70_65)
            (bvadd ARGNAME_w_hh_NAMEEND_DIM var68976)
            var68976)
       ARGNAME_w_hh_NAMEEND_DIM))
(assert (= temp70_68 #x0000000000000000))
(assert (= temp70_69 temp70_68))
(assert (= temp70_70 (select ARGNAME_input_NAMEEND_DIMSIZE temp70_69)))
(assert (bvsgt ARGNAME_input_NAMEEND_DIM temp70_68))
(assert (bvsge temp70_68 (bvneg ARGNAME_input_NAMEEND_DIM)))
(assert (= temp70_71 #x0000000000000000))
(assert (= temp70_72 temp70_71))
(assert (= temp70_73 (select ARGNAME_hx_NAMEEND_DIMSIZE temp70_72)))
(assert (= temp70_74 #x0000000000000001))
(assert (= temp70_75 temp70_74))
(assert (= temp70_76 (select ARGNAME_hx_NAMEEND_DIMSIZE temp70_75)))
(assert (= temp70_77 #x0000000000000002))
(assert (= temp70_78 temp70_77))
(assert (= temp70_79 (select ARGNAME_hx_NAMEEND_DIMSIZE temp70_78)))
(assert (= temp70_80 #x0000000000000003))
(assert (= temp70_81 temp70_80))
(assert (= temp70_82 (select ARGNAME_hx_NAMEEND_DIMSIZE temp70_81)))
(assert (= temp70_83 #x0000000000000004))
(assert (= temp70_84 temp70_83))
(assert (= temp70_85 (select ARGNAME_hx_NAMEEND_DIMSIZE temp70_84)))
(assert (= temp70_86 #x0000000000000005))
(assert (= temp70_87 temp70_86))
(assert (= temp70_88 (select ARGNAME_hx_NAMEEND_DIMSIZE temp70_87)))
(assert (= temp70_89 #x0000000000000000))
(assert (= temp70_90 temp70_89))
(assert (= temp70_91 (select ARGNAME_hx_NAMEEND_DIMSIZE temp70_90)))
(assert (bvsgt ARGNAME_hx_NAMEEND_DIM temp70_89))
(assert (bvsge temp70_89 (bvneg ARGNAME_hx_NAMEEND_DIM)))
(assert (= var535496
   (ite (= temp70_70 temp70_91) #x0000000000000001 #x0000000000000000)))
(assert (= temp70_92 #x0000000000000001))
(assert (= var535496 temp70_92))
(assert (= temp70_93 #x0000000000000001))
(assert (= temp70_94 temp70_93))
(assert (= temp70_95 (select ARGNAME_hx_NAMEEND_DIMSIZE temp70_94)))
(assert (bvsgt ARGNAME_hx_NAMEEND_DIM temp70_93))
(assert (bvsge temp70_93 (bvneg ARGNAME_hx_NAMEEND_DIM)))
(assert (= temp70_96 var77676))
(assert (= var535565
   (ite (= temp70_95 temp70_96) #x0000000000000001 #x0000000000000000)))
(assert (= temp70_97 #x0000000000000001))
(assert (= var535565 temp70_97))
(assert (= temp70_99 #x0000000000000000))
(assert (= temp70_98 temp70_99))
(model-add temp70_1 () (_ BitVec 64) #x0000000000000001)
(model-add var68976 () (_ BitVec 64) #x0000000000000001)
(model-add temp70_2 () (_ BitVec 64) #x0000000000000000)
(model-add temp70_3 () (_ BitVec 64) #x0000000000000000)
(model-add temp70_4
           ()
           (_ BitVec 64)
           (select ARGNAME_w_ih_NAMEEND_DIMSIZE #x0000000000000000))
(model-add temp70_5 () (_ BitVec 64) #x0000000000000001)
(model-add temp70_6 () (_ BitVec 64) #x0000000000000001)
(model-add temp70_7
           ()
           (_ BitVec 64)
           (select ARGNAME_w_ih_NAMEEND_DIMSIZE #x0000000000000001))
(model-add temp70_8 () (_ BitVec 64) #x0000000000000002)
(model-add temp70_9 () (_ BitVec 64) #x0000000000000002)
(model-add temp70_10
           ()
           (_ BitVec 64)
           (select ARGNAME_w_ih_NAMEEND_DIMSIZE #x0000000000000002))
(model-add temp70_11 () (_ BitVec 64) #x0000000000000003)
(model-add temp70_12 () (_ BitVec 64) #x0000000000000003)
(model-add temp70_13
           ()
           (_ BitVec 64)
           (select ARGNAME_w_ih_NAMEEND_DIMSIZE #x0000000000000003))
(model-add temp70_14 () (_ BitVec 64) #x0000000000000004)
(model-add temp70_15 () (_ BitVec 64) #x0000000000000004)
(model-add temp70_16
           ()
           (_ BitVec 64)
           (select ARGNAME_w_ih_NAMEEND_DIMSIZE #x0000000000000004))
(model-add temp70_17 () (_ BitVec 64) #x0000000000000005)
(model-add temp70_18 () (_ BitVec 64) #x0000000000000005)
(model-add temp70_19
           ()
           (_ BitVec 64)
           (select ARGNAME_w_ih_NAMEEND_DIMSIZE #x0000000000000005))
(model-add temp70_20 () (_ BitVec 64) #x0000000000000000)
(model-add temp70_21 () (_ BitVec 64) #x0000000000000001)
(model-add temp70_22
           ()
           (_ BitVec 64)
           (select ARGNAME_w_ih_NAMEEND_DIMSIZE #x0000000000000001))
(model-add var77671
           ()
           (_ BitVec 64)
           (select ARGNAME_w_ih_NAMEEND_DIMSIZE #x0000000000000001))
(model-add temp70_23 () (_ BitVec 64) #x0000000000000000)
(model-add temp70_24 () (_ BitVec 64) #x0000000000000000)
(model-add temp70_25
           ()
           (_ BitVec 64)
           (select ARGNAME_input_NAMEEND_DIMSIZE #x0000000000000000))
(model-add temp70_26 () (_ BitVec 64) #x0000000000000001)
(model-add temp70_27 () (_ BitVec 64) #x0000000000000001)
(model-add temp70_28
           ()
           (_ BitVec 64)
           (select ARGNAME_input_NAMEEND_DIMSIZE #x0000000000000001))
(model-add temp70_29 () (_ BitVec 64) #x0000000000000002)
(model-add temp70_30 () (_ BitVec 64) #x0000000000000002)
(model-add temp70_31
           ()
           (_ BitVec 64)
           (select ARGNAME_input_NAMEEND_DIMSIZE #x0000000000000002))
(model-add temp70_32 () (_ BitVec 64) #x0000000000000003)
(model-add temp70_33 () (_ BitVec 64) #x0000000000000003)
(model-add temp70_34
           ()
           (_ BitVec 64)
           (select ARGNAME_input_NAMEEND_DIMSIZE #x0000000000000003))
(model-add temp70_35 () (_ BitVec 64) #x0000000000000004)
(model-add temp70_36 () (_ BitVec 64) #x0000000000000004)
(model-add temp70_37
           ()
           (_ BitVec 64)
           (select ARGNAME_input_NAMEEND_DIMSIZE #x0000000000000004))
(model-add temp70_38 () (_ BitVec 64) #x0000000000000005)
(model-add temp70_39 () (_ BitVec 64) #x0000000000000005)
(model-add temp70_40
           ()
           (_ BitVec 64)
           (select ARGNAME_input_NAMEEND_DIMSIZE #x0000000000000005))
(model-add temp70_41 () (_ BitVec 64) #x0000000000000001)
(model-add temp70_42 () (_ BitVec 64) #x0000000000000001)
(model-add temp70_43
           ()
           (_ BitVec 64)
           (select ARGNAME_input_NAMEEND_DIMSIZE #x0000000000000001))
(model-add temp70_44
           ()
           (_ BitVec 64)
           (select ARGNAME_w_ih_NAMEEND_DIMSIZE #x0000000000000001))
(model-add temp70_45 () (_ BitVec 64) #x0000000000000001)
(model-add var273184 () (_ BitVec 64) #x0000000000000001)
(model-del k!0)
(model-add ARGNAME_w_ih_NAMEEND_DIM
           ()
           (_ BitVec 64)
           (ite (or k!0 (= #x0000000000000001 #x7fffffffffffffff))
                #x0000000000000001
                (bvadd #x0000000000000001 #x0000000000000001)))
(model-del k!1)
(model-add ARGNAME_input_NAMEEND_DIMSIZE
           ()
           (Array (_ BitVec 64) (_ BitVec 64))
           ((as const (Array (_ BitVec 64) (_ BitVec 64))) k!1))
(model-del k!2)
(model-add ARGNAME_w_ih_NAMEEND_DIMSIZE
           ()
           (Array (_ BitVec 64) (_ BitVec 64))
           ((as const (Array (_ BitVec 64) (_ BitVec 64))) k!2))
(model-del k!3)
(model-add k!0 () Bool (not k!3))
(model-del k!4)
(model-add k!1 () (_ BitVec 64) (ite k!4 k!2 (bvnot k!2)))






